4 10
210 248 281 219 
0 58 48 76 66 95 85 13 3 88 23 68 12 70 62 33 71 66 31 19 85 3
1 100 90 85 75 61 51 38 28 99 35 45 80 68 48 46 2 85 48 64 38 4
2 94 84 37 27 71 61 14 4 2 36 40 76 21 83 93 77 57 84 8 14 2
3 73 63 81 71 98 88 106 96 41 44 77 67 13 26 75 43 70 40 34 8 3
4 44 34 15 5 85 75 56 46 44 51 37 43 8 29 52 37 29 61 37 44 3
5 14 4 23 13 23 13 32 22 85 29 91 79 45 9 32 67 73 90 69 62 1
6 29 19 76 66 22 12 77 67 17 26 87 21 61 86 40 87 86 14 60 48 4
7 42 32 19 9 103 93 80 70 85 55 86 59 98 92 77 46 35 99 37 45 2
8 46 36 97 87 47 37 90 80 21 24 51 44 70 67 68 41 56 85 4 86 4
9 20 10 88 78 57 47 33 23 38 30 39 94 59 97 35 35 15 41 38 72 1
